db/inputs/72851041265512616930957304452386969.smt2
(set-logic QF_FP)
(declare-const x0 (_ FloatingPoint 8 24))
(declare-const x1 (_ FloatingPoint 8 24))
(declare-const x2 (_ FloatingPoint 8 24))
(declare-const x3 (_ FloatingPoint 8 24))
(declare-const x4 (_ FloatingPoint 8 24))
(declare-const x5 (_ FloatingPoint 8 24))
(declare-const x6 (_ FloatingPoint 8 24))
(declare-const x7 (_ FloatingPoint 8 24))
(declare-const x8 (_ FloatingPoint 8 24))
(declare-const x9 (_ FloatingPoint 8 24))
(declare-const x10 (_ FloatingPoint 8 24))
(assert (fp.leq (fp.sub RNE (fp.neg x10) (fp.mul RNE x7 x7)) (fp.add RNE (fp.add RNE x5 x6) (fp.div RNE x7 x8))))
(assert (fp.lt (fp.neg (fp.mul RNE x10 x10)) (fp.neg (fp.sub RNE x1 x4))))
(assert (fp.leq (fp.div RNE (fp.neg x10) (fp.sub RNE x6 x4)) (fp.mul RNE (fp.mul RNE x1 x9) (fp.neg x0))))
(assert (fp.gt (fp.div RNE (fp.div RNE x0 x0) (fp.add RNE x3 x10)) (fp.neg (fp.div RNE x9 x2))))
(assert (fp.leq (fp.div RNE (fp.div RNE x1 x2) (fp.sub RNE x2 x3)) (fp.neg (fp.div RNE x1 x9))))
(assert (fp.leq (fp.sub RNE (fp.mul RNE x0 x9) (fp.sub RNE x6 x5)) (fp.neg (fp.add RNE x8 x0))))
(assert (fp.lt (fp.div RNE (fp.sub RNE x1 x1) (fp.mul RNE x4 x1)) (fp.add RNE (fp.neg x8) (fp.add RNE x5 x5))))
(assert (fp.lt (fp.add RNE (fp.mul RNE x10 x10) (fp.sub RNE x0 x9)) (fp.sub RNE (fp.neg x4) (fp.mul RNE x8 x10))))
(assert (fp.gt (fp.sub RNE (fp.sub RNE x3 x8) (fp.div RNE x8 x8)) (fp.add RNE (fp.mul RNE x3 x6) (fp.mul RNE x1 x1))))
(assert (fp.lt (fp.sub RNE (fp.mul RNE x5 x10) (fp.sub RNE x6 x2)) (fp.neg (fp.neg x1))))
(assert (fp.eq (fp.mul RNE (fp.sub RNE x5 x8) (fp.mul RNE x6 x8)) (fp.sub RNE (fp.sub RNE x2 x8) (fp.div RNE x4 x3))))
(check-sat)
