db/data/72851041265512616930957304452386969.z3.out
sat
-------------------
1319.410367910
